NAME : P = NP
TYPE : TSP
DIMENSION : 34
EDGE_WEIGHT_TYPE : EUC_2D
NODE_COORD_SECTION
0 408 47
1 330 318
2 510 489
3 754 387
4 335 320
5 443 337
6 674 21
7 608 263
8 139 51
9 26 446
10 408 437
11 229 67
12 313 66
13 35 359
14 37 127
15 58 467
16 131 668
17 94 371
18 329 57
19 738 586
20 511 691
21 39 654
22 15 710
23 161 236
24 454 163
25 57 106
26 41 373
27 143 38
28 349 804
29 77 445
30 5 514
31 338 538
32 815 321
33 43 439